c all_slices.cnf
p cnf 112 31
1 0 
-110 8 0
110 -8 0
-107 8 0
107 -8 0
-109 11 0
109 -11 0
-112 8 0
112 -8 0
-108 12 0
108 -12 0
-111 8 0
111 -8 0
 -11  -12 0
 -8  1 0
 8  -11 0
 -8  11  12 0
 8  -12 0
-108  -110 0
 100 0
 110  -112 0
 -107  100 0
 -111  -112 0
 -109  -110 0
 107  -109 0
 110  -111 0
 107  -110 0
 107  -108 0
 -107  109  108  110 0
 -110  111  112 0
 -109  -108 0
